computational_data/solutions/Reg3_n40_s2.sol
Optimal - objective value 18.00000000
      6 r_6                         1                       1
     14 r_14                        1                       1
     19 r_19                        1                       1
     22 r_22                        1                       1
     24 r_24                        1                       1
     25 r_25                        1                       1
     28 r_28                        1                       1
     33 r_33                        1                       1
     38 r_38                        1                       1
     42 b_2                         1                       1
     45 b_5                         1                       1
     48 b_8                         1                       1
     57 b_17                        1                       1
     61 b_21                        1                       1
     70 b_30                        1                       1
     71 b_31                        1                       1
     72 b_32                        1                       1
     74 b_34                        1                       1
